unsat
(define-fun SC ((s (_ BitVec 4)) (t (_ BitVec 4))) Bool (bvult t #b1111))
0.02user 0.00system 0:00.02elapsed 100%CPU (0avgtext+0avgdata 25544maxresident)k
0inputs+8outputs (0major+1043minor)pagefaults 0swaps
